c Lingeling SAT Solver
c 
c Version bcq 87c2f8547dfbfb3f6e4f086d37f4439427053bf3
c 
c Copyright (C) 2010-2016 Armin Biere JKU Linz Austria.
c All rights reserved.
c 
c released Thu Apr 28 10:56:44 BST 2022
c compiled Thu Apr 28 10:56:44 BST 2022
c 
c Apple clang version 13.1.6 (clang-1316.0.21.2)
c -W -Wall -O3 -DNLGLOG -DNDEBUG -DNCHKSOL -DNLGLDRUPLIG -DNLGLYALSAT
c -DNLGLFILES -DNLGLDEMA
c Darwin gizmo.local 21.4.0 arm64
c 
c 
c  seconds         irredundant            redundant clauses   glue   iterations"      MB    stability
c          variables clauses conflicts  large ternary binary     jlevel       jlevel'  agility     tlevel
c 
c  S    0.0       0     1281         0       0      0     0    0     0      0     0    0   4     0      0
c 
c  seconds         irredundant            redundant clauses   glue   iterations"      MB    stability
c          variables clauses conflicts  large ternary binary     jlevel       jlevel'  agility     tlevel
c 
s SATISFIABLE
v 1 2 3 4 5 6 7 8 9 10 11 12 13 14 15 16 17 18 19 20 21 22 23 24 25 26 27 28 29
v 30 31 32 33 34 35 36 37 38 39 40 41 42 43 44 45 46 47 48 49 50 51 52 53 54 55
v 56 57 58 59 60 61 62 63 64 65 66 67 68 69 70 71 72 73 74 75 76 77 78 79 80 81
v 82 83 84 85 86 87 88 89 90 91 92 93 94 95 96 97 98 99 100 101 102 103 104 105
v 106 107 108 109 110 111 112 113 114 115 116 117 118 119 120 121 122 123 124
v 125 126 127 128 129 130 131 132 133 134 135 136 137 138 139 140 141 142 143
v 144 145 146 147 148 149 150 151 152 153 -154 155 156 157 158 159 160 161 162
v 163 164 165 166 167 168 169 170 171 172 173 174 175 176 177 178 179 180 181
v 182 183 184 185 186 187 188 189 190 191 192 193 194 195 196 197 198 199 200
v 201 202 203 204 205 206 207 208 209 210 211 212 213 214 215 216 217 218 219
v 220 221 222 223 224 225 226 227 228 229 230 231 232 233 234 235 236 237 238
v 239 240 241 242 243 244 245 246 247 248 249 250 251 252 253 254 255 256 257
v 258 259 260 261 262 263 264 265 266 267 268 269 270 271 272 273 274 275 276
v 277 278 279 280 281 282 283 284 285 286 287 288 289 290 291 292 293 294 295
v 296 297 298 299 300 0
c
c    0.000  88% simplifying
c    0.000   3% search
c ==================================
c    0.000 100% all
c 
c             0 conflicts,           0.0 confs/sec
c             0 ternaries,           0.0 confs/ternary
c             0 binaries,            0.0 confs/binary
c             0 iterations,          0.0 confs/iteration
c 
c             0 reductions,          0.0 redus/sec,      0.0 confs/reduction
c             0 restarts,            0.0 rests/sec,      0.0 confs/restart
c             0 decisions,           0.0 decis/sec,      0.0 decis/conflict
c           300 propagations,  1923076.9 props/sec,      0.0 props/decision
c 
c 0.0 seconds, 0.1 MB
